Route #1: 105 19 188 57 63 172 83 182 160 184 149 1 165 88 44 127 120 168 13 171 110 66 64 163
Route #2: 37 118 131 31 45 99 14 16 170 26 49 119 117 67 108 103 129 156 72 139 133 102 4 128 34 95 73 10 43 58
Route #3: 29 106 166 51 93 75 121 50 94 21 68 178 69 55 23 164 158 111 74 161 132 134 113 91 59 96 3
Route #4: 112 28 138 85 142 104 89 109 35 81 92 46 135 145 115 144 6 2 36 38 22 77
Route #5: 159 80 169 78 150 147 30 39 12 24 97 143 183 136 167 123 177 71 52 101 47 5 176 125 86 137 151
Route #6: 25 146 186 87 152 41 181 126 54 174 48 130 56 8 100 62 179 42 90 9 114 65 20 162 7
Route #7: 157 173 175 11 60 116 79 17 155 154 189 53 187 124 27 15 76 185 18
Route #8: 107 33 140 40 61 180 153 84 98 141 70 148 32 82 122
cost: 19584
